NAME: custom36
TYPE: TSP
COMMENT: 
DIMENSION: 36
NODE_COORD_SECTION
1 394.68 759
2 394.68 653.4000000000001
3 373.56 542.52
4 310.20000000000005 500.28
5 331.32 357.72
6 436.92 299.64
7 394.68 162.36000000000013
8 257.4 109.56000000000006
9 188.76000000000002 188.7600000000001
10 19.8 130.68000000000006
11 415.8 40.92000000000007
12 616.4399999999999 19.800000000000068
13 542.52 141.24
14 663.9599999999999 225.72000000000003
15 605.88 304.9200000000001
16 663.9599999999999 442.20000000000005
17 769.56 484.44000000000005
18 785.4 373.56000000000006
19 1021 196
20 1024 148
21 935 175
22 967 209
23 989 236
24 1013 272
25 1089 213
26 970.1999999999999 579.48
27 547.8 732.6
28 674.52 600.5999999999999
29 510.84000000000003 526.6800000000001
EOF
